1000 1747
1 2 3 4 5 6 7 8 9 10 11 12 13
0 14 15 16 17 18 19 20 21 22 23 24 25 26 27 28 29 30 31 32 33 34 35 36 37 38 39 40 41 42 43 44 45 46 47 48 49 50 51 52 53 54 55 56 57 58 59
0 38 60 61 62 63 64 65 66 67 68 69 70 71 72 73 74 75 76 77 78 79 80 81 82 83 84
0 85 86 87 88 89 90 91 92 93 94 95 96 97 98 99 100 101 102 103 104 105 106 107 108 109 110 111 112 113 114
0 5 55 99 115 116 117 118 119 120 121 122 123 124 125
0 4 14 18 20 21 22 29 32 49 56 91 99 106 117 121 126 127 128 129 130 131 132 133 134 135 136 137 138 139 140 141 142 143 144 145 146 147 148 149 150 151 152 153 154 155 156 157 158
0 159 160 161 162 163 164 165 166 167 168 169 170 171 172 173 174 175 176 177 178 179 180 181 182 183 184 185 186 187 188 189 190 191 192 193 194 195 196 197 198 199 200 201 202 203 204 205 206 207 208 209 210 211 212 213 214 215 216 217 218 219 220 221 222 223 224 225 226 227 228 229 230 231 232 233 234 235 236 237 238 239 240 241 242 243 244 245 246 247 248 249 250 251 252 253 254 255 256 257 258 259 260 261 262 263 264 265 266 267 268 269 270 271 272 273 274 275 276 277 278 279 280 281 282 283 284 285 286 287 288 289 290 291 292 293 294 295 296 297 298 299 300 301 302 303 304 305 306 307 308 309 310 311 312 313 314 315 316 317 318 319 320 321 322 323 324 325 326 327 328 329 330 331 332 333 334 335 336 337 338 339 340 341 342 343 344 345 346 347 348 349 350 351 352 353 354 355 356 357 358 359 360 361 362 363 364 365 366 367 368 369 370 371 372 373 374 375 376 377 378 379 380 381 382 383 384 385 386 387 388 389 390 391 392 393 394 395 396 397 398 399 400 401 402 403 404 405 406 407 408 409 410 411 412 413 414 415 416 417 418 419 420 421 422 423 424 425 426 427 428 429 430 431 432 433 434 435 436 437 438 439 440 441 442 443 444 445 446 447 448 449 450 451 452 453 454 455 456 457 458 459 460 461 462 463 464 465 466 467 468 469 470 471 472 473 474 475 476 477 478 479 480 481 482 483 484 485 486 487 488 489 490 491 492 493 494 495 496 497 498 499 500 501 502 503 504 505 506 507 508 509 510 511 512 513 514 515 516 517 518 519 520 521 522 523 524 525 526 527 528 529 530 531 532 533 534 535 536 537 538 539 540 541 542 543 544 545 546 547 548 549 550 551 552 553 554 555 556 557 558 559 560 561 562 563 564 565 566 567 568 569 570 571 572 573 574 575 576 577 578 579 580 581 582 583 584 585 586 587 588 589 590 591 592 593 594 595 596 597 598 599 600 601 602 603 604 605 606 607 608 609 610 611 612 613 614 615 616 617 618 619 620 621 622 623 624 625 626 627 628 629 630 631 632 633 634 635 636 637 638 639 640 641 642 643 644 645 646 647 648 649 650 651 652 653 654 655 656 657 658 659 660 661 662 663 664 665 666 667 668 669 670 671 672 673 674 675 676 677 678 679 680 681 682 683 684 685 686 687 688 689 690 691 692 693 694 695 696 697 698 699 700 701 702 703 704 705 706 707 708 709 710 711 712 713 714 715 716 717 718 719 720 721 722 723 724 725 726 727 728 729 730 731 732 733 734 735 736 737 738 739 740 741 742 743 744 745 746 747 748 749 750 751 752 753 754 755 756 757 758 759 760 761 762 763 764 765 766 767 768 769 770 771 772 773 774 775 776 777 778 779 780 781 782 783 784 785 786 787 788 789 790 791 792 793 794 795 796 797 798 799 800 801 802 803 804 805 806 807 808 809 810 811 812 813 814 815 816 817 818 819 820 821 822 823 824 825 826 827 828 829 830 831 832 833 834 835 836 837 838 839 840 841 842 843 844 845 846 847 848 849 850 851 852 853 854 855 856 857 858 859 860 861 862 863 864 865 866 867 868 869 870 871 872 873 874 875 876 877 878 879 880 881 882 883 884 885 886 887 888 889 890 891 892 893 894 895 896 897 898 899 900 901 902 903 904 905 906 907 908 909 910 911 912 913 914 915 916 917 918 919 920 921 922 923 924 925 926 927 928 929 930 931 932 933 934 935 936 937 938 939 940 941 942 943 944 945 946 947 948 949 950 951 952 953 954 955 956 957 958 959 960 961
0 9 11 12 13 865 962 963 964 965 966 967 968 969 970 971 972 973 974 975 976 977 978 979 980 981 982 983 984 985 986 987 988 989 990 991 992 993 994 995 996 997 998 999
0 11 865 967 971
0 7 837 865 991 995 996
0 41 47 74 106 114 121 125 128
0 7 8 18 104 549 865
0 7 873
0 7 996
1 5
1 139
1
1
1 5 11 22 42 70 127 511
1 42 56 127 149 156
1 5 46 89 91
1 5 43 115 970
1 5 18 149
1 68
1 632
1 127
1
1 42 127
1 86 119 141
1 5 42 891 915 917
1 43 89 106
1 141
1 5 89 93 119 122
1 43 127
1
1 50
1 47 50 56 119 127 137 143 156
1
1 2 66 95 96 983
1 95
1 71
1 10 43 106 119 122
1 18 19 27 29 53 54 56 119 140
1 21 30 33 41 52 95 127 133 138 151 156
1 56 78 106 150 629
1
1 20 89 106 136 145 148
1 10 36 65 949
1 127 156
1 5 89 106
1 35 36
1
1 43 58 68 105 106 114
1 42 149
1 42 70 292
1 4 106 110 121 123 970
1 5 19 36 42 44
1 125
1 52 136
1
2 985
2 67
2
2 70 76 78 127
2
2 47
2 38
2 61
2 23 52 82
2
2 18 54 63 89 149 156 349
2 40
2 114
2 140 983
2 10 105 431
2
2 63 89 996
2 79
2 44 63
2 77
2 95
2
2 68 696
2
2
3
3 28 112
3
3 89 120 121
3 20 30 32 46 49 70 76 88 101 119 122 124 140 142 147 349 354 403
3
3 5 20 145 987
3
3 32 106 120 136
3
3 38 39 43 80 106 123 125 136
3 38 97 147 292
3 96
3
3 4 5 119 145
3
3 89 144
3
3
3 11
3 52 74 109 111 136
3 5 10 30 41 44 46 49 52 55 93 95 114 115 117 119 120 121 122 123 128 135 136 148 154 509 970
3 127
3
3 105 136
3 55
3 105
3 86
3
3 10 52 72 106 121 136 970
4 21 106 122 125 128 135
4
4 5 106
4
4 28 32 36 41 42 89 99 106 125 127 128 144 155
4 88 93 106 136 148
4 5 10 55 88 106 114
4 32 41 89 106 115 136 144 344 870
4 55 95 106 144
4 89 136 142 147 963
4 10 57 95 115 119 127 135 144 509
5
5 18 19 25 27 33 36 43 48 63 107 119 125 156
5 10 106 115 119
5
5
5 149
5
5 43
5
5 106 115 125 136
5 46 58 93 95 105 106 109 114 120 122 124 135 141 143 158 970
5 36
5 43
5 15
5 42 73 89 219 531 865
5 28 31 136
5 89 124 158
5 36 136
5 101 119 122 123 125 262 720
5 46 91 99
5
5 89 96 124
5 46 106 120
5 19 22 53 70 131
5 44
5 43
5
5
5 106
5 119 864
5 19 36 43 48 70 127
5
5 136 142
6
6
6 209 329 456 494 582 604 690 795 901
6
6
6
6
6
6
6
6 644
6 320 380 778 807 812
6 435 594 621 674 826
6
6 460
6
6
6 339
6
6
6
6
6 261
6
6
6 586
6
6 984
6
6
6
6
6 599
6 299 494 789
6 456
6
6
6
6
6 424
6
6 249 426 541
6
6
6
6
6 775
6
6
6
6 161 381 425 456 463 494 582 599 866 949
6
6
6
6
6
6
6
6 560
6 692 762
6 140 460 594 683
6 941
6
6 249
6 244 720
6
6
6 515 594
6 775 849
6
6 404 796 891
6
6
6 986
6
6
6
6
6 390
6
6 599
6
6
6 318 541 557 564 604 667 789 819 838 901
6
6 223 325 332 429 489 532 594 600 606 651 699 774 823
6
6
6
6
6 200 222 426 959
6 692 807 812
6
6 777
6
6 332 600 997
6
6
6
6
6 924
6
6 181
6 144
6 775
6
6
6 281 438 532 689 849
6
6
6
6
6
6
6
6 775
6 384 545 557
6 775
6
6
6 437 460 489 538 984
6
6 266 290
6
6
6
6
6
6
6
6
6 281 621
6
6 54 96 775
6
6
6
6
6
6
6 192 329 425 456 494 599
6
6 599
6
6
6 703
6 670
6 984
6
6 623
6
6 320 335
6
6 609
6
6
6
6
6
6 242 541 564 690
6
6 170 310 335 413 901
6
6
6
6
6 244 348 393 452 753 774 917
6
6
6
6 161 299 425 456 494 541 564 604 901
6
6 775
6 244 254 552 830
6
6
6 310 320 413
6 924
6
6 429
6 176
6
6
6
6
6 122
6
6 984
6
6 325 594 606 690
6 70 89 672 865
6 775
6 690
6
6 541
6 89 965
6
6
6
6 775
6
6
6
6
6 786
6
6
6 529 703
6
6 775
6 789
6 901 938
6
6
6
6 646
6 690
6
6
6 536 857
6 653
6 170 778
6 209 599
6
6
6 275
6
6
6
6 828
6
6 237
6
6
6 325
6
6
6
6
6 836
6
6 463 901
6
6 416 823
6 89
6 229 530
6
6
6
6
6
6
6
6
6 320 335
6
6
6 402 594 606
6
6
6
6
6 972
6 775
6
6 198 536
6 209 299 329 456 463 494 564 582 602 604 690 789 866 901 949
6 200 249 959
6 573 927
6
6 244 338 738
6
6 74 502
6
6 584
6
6 171
6
6 279 671 684 938
6 266
6
6 762
6
6
6 598 775
6 812
6
6
6 775
6
6 775
6
6 984
6 325 489 534 560 594 606 699 972
6
6
6
6 161 193 209 299 329 425 485 564 582 690 795 810 949
6 812
6
6 673
6 173 219 279 678
6 960
6
6 209 400 425 564 599
6
6
6
6 488 580
6
6 644 864
6
6
6 775
6
6
6
6
6
6 704
6
6 552 562 594
6 775
6 606 621
6
6
6 456 823
6
6
6 467 594 606 786
6 244 279 452 531
6
6
6
6
6 161 192 209 299 329 425 541 564 582 599 789 838 866
6
6
6
6
6
6
6
6 431
6
6 775
6
6
6
6
6 106 125
6
6 18
6 536 775
6
6
6 226
6
6
6
6
6 532 594 654 699 886
6
6
6 552 857
6 775
6
6 632
6 536 984
6
6 366 771
6 404
6 140 489 692 866
6 244 266 520 775
6
6 452
6
6 378 424 512 527 707
6 541 564 866
6 279 703
6
6 953
6 200 242 318 329 353 494 537 564 599 604 667 690 775 795 819 838 866 884 901 949
6 550 846
6
6
6 275 901
6
6
6
6 11
6 542 596 846
6
6 332 480 523 560 600 966
6 606 647 917
6
6
6
6 242 275
6
6
6 217 452 552 606 654 738 753 972
6 599 775 812 823
6 480 670 699 724 875 891 927
6
6 242 318 329 425 456 463 494 537 541 582 819 901
6
6
6 775
6 775 915
6
6
6
6
6 427 582
6
6
6 746 775 938
6
6
6
6 467
6
6 161 209 425 456 494 564 573 599 604 690 901
6
6 433
6
6 184 828
6
6
6
6
6
6
6
6 171 219 226 244 348 416 452 480 488 520 600 606 621 657 674 728 738 774 826 901 915 917 960 972
6
6 550 846
6 775
6 443
6 191 209 239 299 301 381 463 494 541 561 582 602 604 703 814 838 911 949
6 244 254 552 594 606 865 903 967 973 977 998 999
6
6 425 599
6
6 161 242 329 425 541 582 599 775 819 838 901 949
6
6 244 348 416 452 482 488 553 560 594 600 699 728 731 738 774 786 965 977 997 998
6
6
6 312
6
6
6 965
6
6
6
6
6
6
6
6
6 171 290 482 594 674 819 901
6
6 308 809
6
6
6 692 835
6
6
6 44
6 949
6 836
6 24 526 946
6 775
6
6 720 936
6 775
6
6 775
6
6
6
6
6
6 169 469
6
6 374
6 553
6 812
6
6
6 244
6
6 379
6 520 560
6
6 775
6 594
6
6
6
6
6
6
6
6
6
6 242 541 884
6
6
6 305 562
6 437
6 349 775
6 459
6 171 594 621 901
6 775 914
6
6
6 460 924
6 901
6
6
6
6 219 720 741
6 437 775
6
6
6
6
6 266
6 161 318 348 351 375 425 456 541 582 795 838
6
6 218 250 531 626 830 914
6 845
6
6
6 82
6
6
6 244 452 520 562 606 738 876 934
6
6
6
6 304 366 538 599 812
6 478
6
6
6 536
6
6
6
6
6
6
6
6
6
6
6
6
6 144 223 635 683 886
6 775
6
6
6 562
6
6
6
6 594 606
6
6 775
6 606 823
6 772
6
6
6
6
6 775 843
6 429 560 594 606 699 826
6
6
6 683
6
6
6
6
6 576
6
6
6
6
6
6
6 325 560
6
6
6
6
6 809
6
6
6
6 218 440 906
6
6
6
6
6
6
6
6
6 529
6 732
6
6 244 325 594 606
6 205 227 263 274 276 292 331 350 358 368 422 443 447 449 472 481 504 512 524 532 541 561 567 568 576 597 604 633 636 638 656 672 675 684 721 730 737 787 788 812 817 823 839 858 879 881 914 920 930 942 949
6
6 252
6 170 380
6 828
6
6
6
6
6
6
6 363 488 606 903
6 775
6 775
6 192 242 369 425 494 819 901
6
6
6
6
6
6 161 456 541 690
6 229
6 823
6
6
6
6
6
6
6
6 852
6
6 170 250 843
6
6 623 758 914
6 456
6
6 170 250 444 457 561 648 703 775 901 919 924 938
6
6 599
6
6
6 775
6
6 242 541 564 604 621 789 838 901
6
6
6
6 244 402 485 561 731 775 797 938 956
6
6
6 171 594 738 857
6
6 388 586 779
6
6 332 692
6
6
6
6
6 626
6 398 631
6 9
6 242 494 541 599 604 690 819 901
6 775
6
6 984
6
6 737 807
6
6 693
6 542 550 596
6
6
6 227 266 914
6
6
6 805
6
6
6
6
6 378 523 826 966
6 775
6
6
6
6
6
6 155 469 917
6 7 8 9 11 140 349 600 873 985 999
6 209 425 494 531 537 541 949
6
6
6
6 122
6
6
6 12 865 971 999
6 975
6 562
6 699
6
6
6 775
6
6 775
6
6
6 541 667
6
6 520 720
6
6
6
6
6 29 229 562
6
6
6
6
6
6
6
6
6
6 161 242 320 329 370 400 425 541 545 564 582 594 604 621 674 679 789 812 819 838 938
6
6 600 786 966
6
6
6 762
6
6
6
6
6 599
6
6
6 675 692 775 809 849
6 29 568 594
6 949
6 29 325 553 594 864
6
6 812 960
6 775
6
6
6
6 259 336 678 812
6
6
6 427 562
6
6
6 775
6
6
6
6 699
6
6 635
6
6 370 437 576 812 823 901
6
6
6 220 977
6 775
6
6
6
6 632
6
6
6 47 209 425 456 541 599 604 630 775 866 916
6
6
6
6 540
6
6
6 823
6
6
6 249 426
6 461 594 919
6
7
7 124 987
7
7 354 606 612
7 552 857 903
7 8 600 981
7
7
7 21 55 106 114 136
7 8 873 977
7 421 452 560 594
7 600
7
7 874
7
7 600 606 941 971
7
7 985
7
7 967 985 999
7
7 38 73
7 186 279 306 346 451 527 841
7 60 865 979 981
7 232
7 91 963 991
7
7
7
7 9 987
7
7
7 995
7 9 994
7 9 13 76
7 254 606
7 600 606 999
7 600 865 873 981 998
